
n_res = 4;
rcap = [89, 81, 393, 409];
rtype = [1, 1, 2, 2];
n_tasks = 100;
modes =  [{1, 2, 3}, {4, 5, 6}, {7, 8, 9}, {10, 11, 12}, {13, 14, 15}, {16, 17, 18}, {19, 20, 21}, {22, 23, 24}, {25, 26, 27}, {28, 29, 30}, {31, 32, 33}, {34, 35, 36}, {37, 38, 39}, {40, 41, 42}, {43, 44, 45}, {46, 47, 48}, {49, 50, 51}, {52, 53, 54}, {55, 56, 57}, {58, 59, 60}, {61, 62, 63}, {64, 65, 66}, {67, 68, 69}, {70, 71, 72}, {73, 74, 75}, {76, 77, 78}, {79, 80, 81}, {82, 83, 84}, {85, 86, 87}, {88, 89, 90}, {91, 92, 93}, {94, 95, 96}, {97, 98, 99}, {100, 101, 102}, {103, 104, 105}, {106, 107, 108}, {109, 110, 111}, {112, 113, 114}, {115, 116, 117}, {118, 119, 120}, {121, 122, 123}, {124, 125, 126}, {127, 128, 129}, {130, 131, 132}, {133, 134, 135}, {136, 137, 138}, {139, 140, 141}, {142, 143, 144}, {145, 146, 147}, {148, 149, 150}, {151, 152, 153}, {154, 155, 156}, {157, 158, 159}, {160, 161, 162}, {163, 164, 165}, {166, 167, 168}, {169, 170, 171}, {172, 173, 174}, {175, 176, 177}, {178, 179, 180}, {181, 182, 183}, {184, 185, 186}, {187, 188, 189}, {190, 191, 192}, {193, 194, 195}, {196, 197, 198}, {199, 200, 201}, {202, 203, 204}, {205, 206, 207}, {208, 209, 210}, {211, 212, 213}, {214, 215, 216}, {217, 218, 219}, {220, 221, 222}, {223, 224, 225}, {226, 227, 228}, {229, 230, 231}, {232, 233, 234}, {235, 236, 237}, {238, 239, 240}, {241, 242, 243}, {244, 245, 246}, {247, 248, 249}, {250, 251, 252}, {253, 254, 255}, {256, 257, 258}, {259, 260, 261}, {262, 263, 264}, {265, 266, 267}, {268, 269, 270}, {271, 272, 273}, {274, 275, 276}, {277, 278, 279}, {280, 281, 282}, {283, 284, 285}, {286, 287, 288}, {289, 290, 291}, {292, 293, 294}, {295, 296, 297}, {298, 299, 300}];
succ =  [{97, 96, 95, 94, 93, 88, 68, 65, 55, 53, 51, 50, 48, 43, 42, 37, 36}, {100, 96, 95, 94, 91, 88, 64, 60, 59, 48, 45, 44, 43, 42, 37, 36}, {99, 98, 97, 94, 93, 88, 83, 79, 67, 66, 65, 64, 60, 59, 58, 55, 54, 51, 48, 46, 44}, {98, 97, 96, 94, 93, 89, 79, 68, 66, 65, 61, 59, 58, 56, 27}, {98, 95, 88, 86, 68, 67, 65, 64, 60, 59, 57, 54, 53, 52, 51, 48, 43}, {100, 96, 95, 94, 92, 91, 86, 81, 67, 59, 56, 54, 52, 45, 31}, {65, 51, 46, 42, 41, 18}, {95, 94, 93, 92, 89, 68, 67, 65, 59, 36, 27}, {98, 97, 96, 95, 94, 89, 83, 79, 67, 65, 59, 56, 27}, {98, 96, 95, 94, 92, 90, 89, 88, 86, 82, 80, 79, 78, 73, 67, 64, 61, 60, 59, 43, 41}, {98, 83, 79, 66, 61, 60, 59, 45, 27}, {98, 95, 93, 90, 87, 86, 84, 82, 79, 78, 65, 61, 60, 59, 58, 56, 55, 49, 41}, {99, 96, 95, 92, 87, 84, 83, 80, 79, 78, 76, 74, 66, 64, 59, 56, 51, 48, 45}, {94, 92, 89, 88, 79, 78, 76, 73, 68, 67, 58, 51, 48, 43, 40}, {94, 89, 88, 84, 83, 66, 64, 61, 56, 54, 51, 48, 36}, {96, 95, 93, 92, 90, 88, 87, 86, 83, 82, 80, 79, 65, 59, 58, 57, 56, 41}, {98, 97, 95, 93, 87, 84, 83, 81, 74, 73, 64, 56, 48, 47, 46}, {94, 91, 89, 88, 86, 81, 80, 79, 76, 64, 61, 57, 48, 43}, {99, 98, 97, 95, 94, 93, 92, 91, 88, 87, 86, 85, 84, 82, 81, 79, 77, 76, 75, 74, 71, 70, 63, 60, 57}, {96, 94, 92, 90, 88, 87, 77, 75, 51, 45, 36}, {95, 92, 90, 86, 85, 84, 83, 81, 78, 75, 74, 73, 64, 60, 56, 54, 52}, {98, 97, 87, 84, 81, 80, 79, 78, 76, 74, 73, 66, 64, 63, 60, 56, 48}, {97, 94, 90, 87, 85, 84, 83, 82, 79, 77, 76, 74, 59, 57, 54, 51}, {93, 91, 90, 88, 87, 81, 80, 76, 72, 55, 44, 43}, {94, 93, 92, 91, 85, 82, 81, 80, 79, 78, 76, 73, 72, 64, 58, 43}, {96, 94, 89, 88, 79, 78, 65, 43, 37}, {88, 87, 86, 84, 78, 77, 76, 74, 72, 64, 54, 51, 48}, {98, 94, 93, 89, 86, 85, 84, 83, 82, 81, 79, 78, 76, 74, 72, 71, 65, 63, 56}, {90, 89, 88, 87, 86, 85, 84, 83, 81, 79, 77, 76, 75, 74, 61, 60}, {93, 85, 84, 82, 81, 80, 79, 78, 74, 73, 72, 70, 69, 67, 66, 64}, {97, 88, 84, 83, 80, 78, 76, 72, 70, 64, 63, 48}, {95, 89, 84, 82, 79, 78, 75, 54, 49}, {95, 89, 84, 83, 79, 77, 74, 73, 70, 63, 61}, {97, 89, 88, 85, 83, 82, 77, 76, 73, 54}, {79, 76, 75, 74, 67, 61, 56}, {82, 79, 76, 74, 71, 70, 63, 57}, {92, 83, 81, 76, 75, 74, 72, 54}, {86, 84, 81, 80, 79, 78, 75, 74, 73, 72, 69}, {97, 88, 87, 80, 72, 71, 70, 69, 65}, {93, 90, 87, 86, 72, 54}, {91, 85, 81, 77, 76, 75, 74, 71, 69}, {87, 85, 84, 79, 77, 75, 70, 66}, {84, 83, 75, 74, 63, 56}, {92, 89, 82, 78, 74, 71, 70, 69}, {93, 89, 72, 71, 70, 69, 65}, {96, 92, 78, 77, 76, 75, 69}, {88, 86, 82, 80, 79, 78, 72}, {90, 85, 82, 75, 71, 69}, {92, 88, 83, 80, 74, 73}, {89, 86, 76, 74, 73, 70}, {91, 81, 71, 70, 63}, {89, 79, 76, 70, 63}, {87, 73, 72, 71, 70}, {80, 71, 70, 69}, {77, 75, 73, 70}, {77, 70, 69}, {78, 73, 72}, {70, 63}, {75, 71}, {72, 69}, {72, 71}, {93, 69}, {69}, {71}, {73}, {86}, {87}, {83}, {}, {}, {}, {}, {}, {}, {}, {}, {}, {}, {}, {}, {}, {}, {}, {}, {}, {}, {}, {}, {}, {}, {}, {}, {}, {}, {}, {}, {}, {}, {}, {}];
n_opt = 300;
dur = [1, 8, 10, 1, 8, 8, 2, 5, 7, 6, 7, 8, 1, 5, 9, 4, 8, 10, 3, 4, 5, 3, 8, 10, 2, 8, 9, 7, 8, 10, 6, 8, 8, 1, 4, 8, 5, 7, 9, 3, 5, 9, 2, 2, 3, 1, 4, 4, 4, 5, 9, 6, 9, 10, 2, 6, 9, 2, 3, 9, 1, 7, 10, 2, 6, 9, 4, 5, 7, 8, 9, 10, 2, 8, 10, 6, 7, 9, 2, 3, 4, 1, 3, 8, 4, 5, 6, 2, 3, 4, 1, 4, 8, 4, 4, 5, 2, 5, 6, 5, 7, 9, 2, 4, 5, 3, 4, 9, 3, 6, 7, 4, 5, 6, 4, 5, 10, 3, 4, 5, 3, 6, 10, 1, 3, 8, 3, 7, 8, 3, 6, 8, 1, 5, 8, 1, 4, 6, 7, 10, 10, 5, 7, 9, 5, 6, 7, 5, 6, 8, 4, 5, 10, 2, 4, 9, 5, 6, 9, 1, 2, 7, 3, 5, 6, 4, 5, 8, 1, 10, 10, 1, 6, 6, 2, 5, 10, 7, 8, 9, 1, 2, 7, 3, 7, 8, 4, 5, 5, 1, 3, 6, 4, 7, 9, 6, 7, 8, 1, 6, 10, 3, 7, 10, 2, 3, 3, 6, 6, 7, 1, 8, 9, 1, 6, 7, 2, 6, 10, 1, 3, 6, 1, 8, 9, 2, 5, 9, 1, 9, 10, 1, 2, 8, 2, 5, 6, 2, 6, 8, 2, 2, 3, 1, 4, 5, 1, 7, 8, 3, 4, 8, 2, 6, 8, 1, 4, 6, 1, 5, 9, 1, 8, 9, 2, 3, 7, 2, 6, 8, 1, 1, 2, 1, 10, 10, 4, 9, 9, 2, 4, 7, 3, 7, 8, 6, 7, 8, 3, 3, 5, 2, 7, 10, 1, 6, 9, 1, 9, 9];
rreq = [|4, 3, 2, 1, 1, 1, 3, 3, 2, 2, 2, 1, 4, 2, 1, 5, 3, 1, 4, 3, 2, 4, 2, 2, 2, 2, 2, 3, 2, 2, 4, 4, 4, 3, 2, 1, 5, 4, 4, 5, 3, 3, 4, 4, 3, 3, 2, 1, 3, 3, 3, 2, 1, 1, 5, 5, 5, 4, 2, 2, 3, 3, 3, 1, 1, 1, 4, 3, 2, 5, 4, 2, 5, 4, 4, 2, 2, 2, 1, 1, 1, 3, 3, 3, 2, 2, 2, 5, 3, 3, 3, 2, 2, 2, 1, 1, 2, 2, 2, 4, 2, 2, 3, 1, 1, 3, 3, 1, 4, 2, 2, 3, 3, 1, 3, 3, 3, 4, 4, 4, 4, 4, 4, 4, 3, 3, 5, 3, 3, 3, 2, 1, 1, 1, 1, 3, 1, 1, 2, 2, 1, 3, 2, 1, 5, 4, 4, 4, 2, 2, 4, 4, 4, 3, 2, 1, 3, 2, 2, 4, 3, 3, 1, 1, 1, 4, 4, 4, 4, 3, 3, 5, 4, 2, 4, 4, 4, 5, 5, 5, 5, 3, 1, 3, 3, 3, 3, 3, 2, 5, 4, 4, 1, 1, 1, 4, 3, 3, 4, 3, 2, 3, 3, 3, 4, 2, 2, 1, 1, 1, 5, 3, 3, 5, 2, 2, 3, 3, 3, 1, 1, 1, 4, 4, 2, 4, 4, 4, 2, 1, 1, 3, 2, 2, 4, 2, 2, 4, 3, 1, 3, 2, 2, 4, 2, 1, 3, 3, 2, 4, 3, 3, 1, 1, 1, 5, 4, 3, 4, 4, 4, 3, 2, 2, 5, 4, 4, 3, 2, 1, 4, 2, 2, 3, 2, 2, 4, 4, 3, 1, 1, 1, 4, 2, 2, 3, 3, 3, 3, 3, 3, 2, 1, 1, 2, 1, 1, 5, 4, 2
 |3, 1, 1, 4, 4, 4, 4, 3, 3, 4, 2, 2, 4, 3, 3, 5, 3, 2, 5, 3, 3, 3, 2, 2, 2, 2, 2, 1, 1, 1, 2, 1, 1, 2, 1, 1, 4, 4, 3, 4, 3, 2, 3, 1, 1, 4, 4, 4, 1, 1, 1, 5, 4, 4, 1, 1, 1, 5, 3, 3, 1, 1, 1, 5, 5, 5, 1, 1, 1, 3, 3, 3, 2, 2, 1, 4, 2, 2, 4, 3, 1, 3, 3, 3, 4, 2, 2, 4, 4, 4, 4, 3, 3, 2, 2, 2, 1, 1, 1, 4, 3, 3, 2, 2, 2, 4, 3, 2, 4, 3, 2, 3, 3, 3, 4, 4, 4, 2, 2, 1, 4, 4, 4, 5, 3, 2, 4, 3, 3, 2, 1, 1, 2, 2, 2, 1, 1, 1, 5, 4, 3, 5, 3, 3, 4, 4, 4, 2, 2, 1, 3, 2, 2, 2, 1, 1, 3, 2, 2, 4, 3, 3, 4, 4, 4, 1, 1, 1, 4, 2, 2, 4, 4, 4, 4, 3, 1, 5, 4, 3, 4, 4, 4, 3, 3, 3, 3, 2, 2, 5, 3, 2, 3, 3, 3, 4, 4, 3, 4, 4, 4, 3, 3, 3, 1, 1, 1, 5, 3, 3, 4, 4, 4, 4, 2, 1, 4, 2, 2, 3, 2, 1, 2, 2, 2, 3, 3, 2, 5, 4, 4, 4, 3, 3, 3, 2, 2, 3, 2, 2, 5, 2, 2, 3, 1, 1, 4, 3, 2, 3, 2, 1, 1, 1, 1, 4, 4, 4, 3, 1, 1, 5, 4, 4, 2, 1, 1, 5, 2, 2, 4, 3, 2, 2, 1, 1, 4, 2, 1, 5, 5, 5, 3, 3, 3, 4, 4, 4, 4, 4, 4, 4, 4, 4, 5, 4, 4, 4, 4, 4
 |0, 0, 0, 0, 0, 3, 10, 0, 0, 0, 0, 3, 0, 0, 4, 7, 6, 0, 6, 4, 4, 8, 0, 0, 0, 0, 6, 0, 3, 0, 0, 0, 7, 0, 3, 0, 10, 0, 9, 0, 0, 0, 8, 0, 0, 0, 0, 2, 9, 8, 0, 6, 6, 5, 8, 7, 6, 0, 0, 3, 0, 7, 5, 0, 7, 5, 0, 9, 8, 0, 0, 0, 7, 0, 5, 0, 0, 5, 0, 0, 3, 4, 2, 1, 6, 0, 0, 5, 2, 1, 6, 0, 0, 1, 2, 1, 9, 7, 0, 0, 3, 2, 0, 0, 2, 10, 0, 0, 0, 0, 0, 0, 0, 0, 8, 0, 0, 6, 5, 0, 0, 0, 4, 8, 4, 0, 6, 4, 0, 6, 0, 4, 5, 0, 2, 9, 0, 4, 5, 0, 3, 1, 1, 1, 0, 0, 4, 0, 0, 0, 5, 3, 0, 0, 4, 3, 8, 0, 0, 0, 0, 0, 6, 0, 0, 4, 3, 1, 5, 5, 0, 0, 0, 7, 0, 1, 0, 0, 0, 7, 4, 0, 0, 3, 0, 2, 0, 5, 0, 5, 0, 0, 0, 0, 2, 0, 5, 5, 8, 0, 3, 0, 0, 6, 5, 5, 0, 1, 2, 1, 7, 0, 5, 0, 9, 9, 10, 0, 7, 2, 0, 0, 0, 5, 2, 0, 9, 9, 0, 5, 1, 4, 0, 0, 0, 4, 0, 10, 0, 0, 0, 7, 4, 6, 0, 0, 4, 3, 1, 6, 0, 5, 8, 0, 7, 5, 0, 1, 9, 4, 3, 6, 0, 0, 6, 5, 4, 0, 1, 0, 2, 0, 0, 8, 8, 0, 0, 0, 6, 5, 4, 3, 0, 0, 2, 6, 0, 0, 0, 8, 6, 0, 3, 0, 0, 0, 0, 0, 0, 7
 |4, 3, 2, 6, 5, 0, 0, 1, 1, 5, 5, 0, 10, 6, 0, 0, 0, 5, 0, 0, 0, 0, 8, 7, 4, 3, 0, 9, 0, 9, 10, 10, 0, 6, 0, 5, 0, 7, 0, 8, 6, 5, 0, 4, 2, 7, 4, 0, 0, 0, 2, 0, 0, 0, 0, 0, 0, 6, 6, 0, 7, 0, 0, 8, 0, 0, 6, 0, 0, 8, 8, 6, 0, 6, 0, 6, 6, 0, 8, 4, 0, 0, 0, 0, 0, 6, 3, 0, 0, 0, 0, 6, 5, 0, 0, 0, 0, 0, 7, 6, 0, 0, 8, 7, 0, 0, 2, 1, 9, 5, 5, 7, 6, 4, 0, 7, 6, 0, 0, 1, 9, 7, 0, 0, 0, 4, 0, 0, 6, 0, 7, 0, 0, 4, 0, 0, 8, 0, 0, 5, 0, 0, 0, 0, 9, 8, 0, 10, 7, 4, 0, 0, 3, 5, 0, 0, 0, 6, 4, 6, 5, 4, 0, 4, 3, 0, 0, 0, 0, 0, 1, 9, 6, 0, 8, 0, 4, 6, 5, 0, 0, 5, 5, 0, 3, 0, 8, 0, 6, 0, 5, 3, 3, 2, 0, 4, 0, 0, 0, 5, 0, 8, 7, 0, 0, 0, 10, 0, 0, 0, 0, 6, 0, 5, 0, 0, 0, 3, 0, 0, 7, 6, 9, 0, 0, 9, 0, 0, 6, 0, 0, 0, 8, 7, 1, 0, 1, 0, 6, 4, 6, 0, 0, 0, 7, 7, 0, 0, 0, 0, 7, 0, 0, 4, 0, 0, 10, 0, 0, 0, 0, 0, 6, 4, 0, 0, 0, 8, 0, 1, 0, 3, 3, 0, 0, 1, 9, 5, 0, 0, 0, 0, 3, 3, 0, 0, 7, 6, 4, 0, 0, 9, 0, 7, 9, 9, 8, 9, 7, 0|];